\ Model UAVstrike
\ LP format - for model browsing. Use MPS format to capture full model detail.
Minimize
  0.1 C90 + 0.1 C91 + 0.1 C92 + 0.1 C93 + 0.1 C94 + 0.1 C95 + C96
Subject To
 R0: C20 + C23 + C26 + C29 + C32 + C40 + C46 + C52 + C58 + C64 = 1
 R1: C5 + C8 + C11 + C14 + C17 + C43 + C49 + C55 + C61 + C67 = 1
 R2: C22 + C25 + C28 + C31 + C34 + C42 + C48 + C54 + C60 + C66 = 1
 R3: C7 + C10 + C13 + C16 + C19 + C45 + C51 + C57 + C63 + C69 = 1
 R4: C0 + C1 + C2 + C3 + C4 + C21 + C24 + C27 + C30 + C33 + C41 + C47 + C53
   + C59 + C65 = 1
 R5: C6 + C9 + C12 + C15 + C18 + C35 + C36 + C37 + C38 + C39 + C44 + C50
   + C56 + C62 + C68 = 1
 R6: C20 + C23 + C26 + C29 + C32 + C40 + C46 + C52 + C58 + C64 <= 1
 R7: C5 + C8 + C11 + C14 + C17 + C43 + C49 + C55 + C61 + C67 <= 1
 R8: C22 + C25 + C28 + C31 + C34 + C42 + C48 + C54 + C60 + C66 <= 1
 R9: C7 + C10 + C13 + C16 + C19 + C45 + C51 + C57 + C63 + C69 <= 1
 R10: C0 + C1 + C2 + C3 + C4 + C21 + C24 + C27 + C30 + C33 + C41 + C47
   + C53 + C59 + C65 <= 1
 R11: C6 + C9 + C12 + C15 + C18 + C35 + C36 + C37 + C38 + C39 + C44 + C50
   + C56 + C62 + C68 <= 1
 R12: C20 + C21 + C22 + C40 + C41 + C42 <= 1
 R13: C5 + C6 + C7 + C43 + C44 + C45 <= 1
 R14: C23 + C24 + C25 + C46 + C47 + C48 <= 1
 R15: C8 + C9 + C10 + C49 + C50 + C51 <= 1
 R16: C26 + C27 + C28 + C52 + C53 + C54 <= 1
 R17: C11 + C12 + C13 + C55 + C56 + C57 <= 1
 R18: C29 + C30 + C31 + C58 + C59 + C60 <= 1
 R19: C14 + C15 + C16 + C61 + C62 + C63 <= 1
 R20: C32 + C33 + C34 + C64 + C65 + C66 <= 1
 R21: C17 + C18 + C19 + C67 + C68 + C69 <= 1
 R22: C70 + C75 + C80 <= 1
 R23: C71 + C76 + C81 <= 1
 R24: C72 + C77 + C82 <= 1
 R25: C73 + C78 + C83 <= 1
 R26: C74 + C79 + C84 <= 1
 R27: C20 + C21 + C22 + C70 <= 1
 R28: C5 + C6 + C7 + C75 <= 1
 R29: C23 + C24 + C25 + C71 <= 1
 R30: C8 + C9 + C10 + C76 <= 1
 R31: C26 + C27 + C28 + C72 <= 1
 R32: C11 + C12 + C13 + C77 <= 1
 R33: C29 + C30 + C31 + C73 <= 1
 R34: C14 + C15 + C16 + C78 <= 1
 R35: C32 + C33 + C34 + C74 <= 1
 R36: C17 + C18 + C19 + C79 <= 1
 R37: C0 + C6 + C21 + C35 + C41 + C44 <= 1
 R38: C1 + C9 + C24 + C36 + C47 + C50 <= 1
 R39: C2 + C12 + C27 + C37 + C53 + C56 <= 1
 R40: C3 + C15 + C30 + C38 + C59 + C62 <= 1
 R41: C4 + C18 + C33 + C39 + C65 + C68 <= 1
 R42: C21 + C22 + C41 + C42 <= 1
 R43: C6 + C7 + C44 + C45 <= 1
 R44: C24 + C25 + C47 + C48 <= 1
 R45: C9 + C10 + C50 + C51 <= 1
 R46: C27 + C28 + C53 + C54 <= 1
 R47: C12 + C13 + C56 + C57 <= 1
 R48: C30 + C31 + C59 + C60 <= 1
 R49: C15 + C16 + C62 + C63 <= 1
 R50: C33 + C34 + C65 + C66 <= 1
 R51: C18 + C19 + C68 + C69 <= 1
 R52: - C5 - C6 - C7 + C22 + C42 - C70 <= 0
 R53: - C0 - C5 - C6 - C7 + C20 + C40 - C70 <= 0
 R54: - C8 - C9 - C10 + C25 + C48 - C71 <= 0
 R55: - C1 - C8 - C9 - C10 + C23 + C46 - C71 <= 0
 R56: - C11 - C12 - C13 + C28 + C54 - C72 <= 0
 R57: - C2 - C11 - C12 - C13 + C26 + C52 - C72 <= 0
 R58: - C14 - C15 - C16 + C31 + C60 - C73 <= 0
 R59: - C3 - C14 - C15 - C16 + C29 + C58 - C73 <= 0
 R60: - C17 - C18 - C19 + C34 + C66 - C74 <= 0
 R61: - C4 - C17 - C18 - C19 + C32 + C64 - C74 <= 0
 R62: C7 - C20 - C21 - C22 + C45 - C75 <= 0
 R63: C5 - C20 - C21 - C22 - C35 + C43 - C75 <= 0
 R64: C10 - C23 - C24 - C25 + C51 - C76 <= 0
 R65: C8 - C23 - C24 - C25 - C36 + C49 - C76 <= 0
 R66: C13 - C26 - C27 - C28 + C57 - C77 <= 0
 R67: C11 - C26 - C27 - C28 - C37 + C55 - C77 <= 0
 R68: C16 - C29 - C30 - C31 + C63 - C78 <= 0
 R69: C14 - C29 - C30 - C31 - C38 + C61 - C78 <= 0
 R70: C19 - C32 - C33 - C34 + C69 - C79 <= 0
 R71: C17 - C32 - C33 - C34 - C39 + C67 - C79 <= 0
 R72: C0 + C5 + C6 + C7 + C21 + C41 + C70 <= 1
 R73: C5 + C6 + C7 - C20 - C21 - C22 - C40 - C41 - C42 + C70 <= 0
 R74: C1 + C8 + C9 + C10 + C24 + C47 + C71 <= 1
 R75: C8 + C9 + C10 - C23 - C24 - C25 - C46 - C47 - C48 + C71 <= 0
 R76: C2 + C11 + C12 + C13 + C27 + C53 + C72 <= 1
 R77: C11 + C12 + C13 - C26 - C27 - C28 - C52 - C53 - C54 + C72 <= 0
 R78: C3 + C14 + C15 + C16 + C30 + C59 + C73 <= 1
 R79: C14 + C15 + C16 - C29 - C30 - C31 - C58 - C59 - C60 + C73 <= 0
 R80: C4 + C17 + C18 + C19 + C33 + C65 + C74 <= 1
 R81: C17 + C18 + C19 - C32 - C33 - C34 - C64 - C65 - C66 + C74 <= 0
 R82: C6 + C20 + C21 + C22 + C35 + C44 + C75 <= 1
 R83: - C5 - C6 - C7 + C20 + C21 + C22 - C43 - C44 - C45 + C75 <= 0
 R84: C9 + C23 + C24 + C25 + C36 + C50 + C76 <= 1
 R85: - C8 - C9 - C10 + C23 + C24 + C25 - C49 - C50 - C51 + C76 <= 0
 R86: C12 + C26 + C27 + C28 + C37 + C56 + C77 <= 1
 R87: - C11 - C12 - C13 + C26 + C27 + C28 - C55 - C56 - C57 + C77 <= 0
 R88: C15 + C29 + C30 + C31 + C38 + C62 + C78 <= 1
 R89: - C14 - C15 - C16 + C29 + C30 + C31 - C61 - C62 - C63 + C78 <= 0
 R90: C18 + C32 + C33 + C34 + C39 + C68 + C79 <= 1
 R91: - C17 - C18 - C19 + C32 + C33 + C34 - C67 - C68 - C69 + C79 <= 0
 R92: C40 + C41 + C42 + C43 + C44 + C45 + C80 = 1
 R93: C46 + C47 + C48 + C49 + C50 + C51 + C81 = 1
 R94: C52 + C53 + C54 + C55 + C56 + C57 + C82 = 1
 R95: C58 + C59 + C60 + C61 + C62 + C63 + C83 = 1
 R96: C64 + C65 + C66 + C67 + C68 + C69 + C84 = 1
 R97: C0 - C20 - C40 <= 0
 R98: C1 - C23 - C46 <= 0
 R99: C2 - C26 - C52 <= 0
 R100: C3 - C29 - C58 <= 0
 R101: C4 - C32 - C64 <= 0
 R102: - C5 + C35 - C43 <= 0
 R103: - C8 + C36 - C49 <= 0
 R104: - C11 + C37 - C55 <= 0
 R105: - C14 + C38 - C61 <= 0
 R106: - C17 + C39 - C67 <= 0
 R107: 500 C5 + 500 C20 + 500 C40 - C90 + C93 <= 1022
 R108: - 500 C5 - 500 C20 - 500 C40 - C90 + C93 >= -978
 R109: 500 C5 + 500 C22 + 500 C42 - C92 + C93 <= 1022
 R110: - 500 C5 - 500 C22 - 500 C42 - C92 + C93 >= -978
 R111: 500 C7 + 500 C20 + 500 C40 - C90 + C95 <= 1002
 R112: - 500 C7 - 500 C20 - 500 C40 - C90 + C95 >= -998
 R113: 500 C7 + 500 C22 + 500 C42 - C92 + C95 <= 1002
 R114: - 500 C7 - 500 C22 - 500 C42 - C92 + C95 >= -998
 R115: 500 C8 + 500 C23 + 500 C46 - C90 + C93 <= 1030
 R116: - 500 C8 - 500 C23 - 500 C46 - C90 + C93 >= -970
 R117: 500 C8 + 500 C25 + 500 C48 - C92 + C93 <= 1030
 R118: - 500 C8 - 500 C25 - 500 C48 - C92 + C93 >= -970
 R119: 500 C10 + 500 C23 + 500 C46 - C90 + C95 <= 1023
 R120: - 500 C10 - 500 C23 - 500 C46 - C90 + C95 >= -977
 R121: 500 C10 + 500 C25 + 500 C48 - C92 + C95 <= 1023
 R122: - 500 C10 - 500 C25 - 500 C48 - C92 + C95 >= -977
 R123: 500 C11 + 500 C26 + 500 C52 - C90 + C93 <= 1010
 R124: - 500 C11 - 500 C26 - 500 C52 - C90 + C93 >= -990
 R125: 500 C11 + 500 C28 + 500 C54 - C92 + C93 <= 1010
 R126: - 500 C11 - 500 C28 - 500 C54 - C92 + C93 >= -990
 R127: 500 C13 + 500 C26 + 500 C52 - C90 + C95 <= 1010
 R128: - 500 C13 - 500 C26 - 500 C52 - C90 + C95 >= -990
 R129: 500 C13 + 500 C28 + 500 C54 - C92 + C95 <= 1010
 R130: - 500 C13 - 500 C28 - 500 C54 - C92 + C95 >= -990
 R131: 500 C14 + 500 C29 + 500 C58 - C90 + C93 <= 1029
 R132: - 500 C14 - 500 C29 - 500 C58 - C90 + C93 >= -971
 R133: 500 C14 + 500 C31 + 500 C60 - C92 + C93 <= 1029
 R134: - 500 C14 - 500 C31 - 500 C60 - C92 + C93 >= -971
 R135: 500 C16 + 500 C29 + 500 C58 - C90 + C95 <= 1012
 R136: - 500 C16 - 500 C29 - 500 C58 - C90 + C95 >= -988
 R137: 500 C16 + 500 C31 + 500 C60 - C92 + C95 <= 1012
 R138: - 500 C16 - 500 C31 - 500 C60 - C92 + C95 >= -988
 R139: 500 C17 + 500 C32 + 500 C64 - C90 + C93 <= 1029
 R140: - 500 C17 - 500 C32 - 500 C64 - C90 + C93 >= -971
 R141: 500 C17 + 500 C34 + 500 C66 - C92 + C93 <= 1029
 R142: - 500 C17 - 500 C34 - 500 C66 - C92 + C93 >= -971
 R143: 500 C19 + 500 C32 + 500 C64 - C90 + C95 <= 1024
 R144: - 500 C19 - 500 C32 - 500 C64 - C90 + C95 >= -976
 R145: 500 C19 + 500 C34 + 500 C66 - C92 + C95 <= 1024
 R146: - 500 C19 - 500 C34 - 500 C66 - C92 + C95 >= -976
 R147: 500 C5 + 500 C20 + 500 C43 + C90 - C93 <= 1016
 R148: - 500 C5 - 500 C20 - 500 C43 + C90 - C93 >= -984
 R149: 500 C7 + 500 C20 + 500 C45 + C90 - C95 <= 1016
 R150: - 500 C7 - 500 C20 - 500 C45 + C90 - C95 >= -984
 R151: 500 C5 + 500 C22 + 500 C43 + C92 - C93 <= 1023
 R152: - 500 C5 - 500 C22 - 500 C43 + C92 - C93 >= -977
 R153: 500 C7 + 500 C22 + 500 C45 + C92 - C95 <= 1023
 R154: - 500 C7 - 500 C22 - 500 C45 + C92 - C95 >= -977
 R155: 500 C8 + 500 C23 + 500 C49 + C90 - C93 <= 1023
 R156: - 500 C8 - 500 C23 - 500 C49 + C90 - C93 >= -977
 R157: 500 C10 + 500 C23 + 500 C51 + C90 - C95 <= 1023
 R158: - 500 C10 - 500 C23 - 500 C51 + C90 - C95 >= -977
 R159: 500 C8 + 500 C25 + 500 C49 + C92 - C93 <= 1023
 R160: - 500 C8 - 500 C25 - 500 C49 + C92 - C93 >= -977
 R161: 500 C10 + 500 C25 + 500 C51 + C92 - C95 <= 1023
 R162: - 500 C10 - 500 C25 - 500 C51 + C92 - C95 >= -977
 R163: 500 C11 + 500 C26 + 500 C55 + C90 - C93 <= 1018
 R164: - 500 C11 - 500 C26 - 500 C55 + C90 - C93 >= -982
 R165: 500 C13 + 500 C26 + 500 C57 + C90 - C95 <= 1018
 R166: - 500 C13 - 500 C26 - 500 C57 + C90 - C95 >= -982
 R167: 500 C11 + 500 C28 + 500 C55 + C92 - C93 <= 1023
 R168: - 500 C11 - 500 C28 - 500 C55 + C92 - C93 >= -977
 R169: 500 C13 + 500 C28 + 500 C57 + C92 - C95 <= 1023
 R170: - 500 C13 - 500 C28 - 500 C57 + C92 - C95 >= -977
 R171: 500 C14 + 500 C29 + 500 C61 + C90 - C93 <= 1029
 R172: - 500 C14 - 500 C29 - 500 C61 + C90 - C93 >= -971
 R173: 500 C16 + 500 C29 + 500 C63 + C90 - C95 <= 1029
 R174: - 500 C16 - 500 C29 - 500 C63 + C90 - C95 >= -971
 R175: 500 C14 + 500 C31 + 500 C61 + C92 - C93 <= 1001
 R176: - 500 C14 - 500 C31 - 500 C61 + C92 - C93 >= -999
 R177: 500 C16 + 500 C31 + 500 C63 + C92 - C95 <= 1001
 R178: - 500 C16 - 500 C31 - 500 C63 + C92 - C95 >= -999
 R179: 500 C17 + 500 C32 + 500 C67 + C90 - C93 <= 1023
 R180: - 500 C17 - 500 C32 - 500 C67 + C90 - C93 >= -977
 R181: 500 C19 + 500 C32 + 500 C69 + C90 - C95 <= 1023
 R182: - 500 C19 - 500 C32 - 500 C69 + C90 - C95 >= -977
 R183: 500 C17 + 500 C34 + 500 C67 + C92 - C93 <= 1002
 R184: - 500 C17 - 500 C34 - 500 C67 + C92 - C93 >= -998
 R185: 500 C19 + 500 C34 + 500 C69 + C92 - C95 <= 1002
 R186: - 500 C19 - 500 C34 - 500 C69 + C92 - C95 >= -998
 R187: 500 C6 + 500 C20 + 500 C40 - C90 + C94 <= 1006
 R188: - 500 C6 - 500 C20 - 500 C40 - C90 + C94 >= -994
 R189: 500 C6 + 500 C22 + 500 C42 - C92 + C94 <= 1006
 R190: - 500 C6 - 500 C22 - 500 C42 - C92 + C94 >= -994
 R191: 500 C9 + 500 C23 + 500 C46 - C90 + C94 <= 1026
 R192: - 500 C9 - 500 C23 - 500 C46 - C90 + C94 >= -974
 R193: 500 C9 + 500 C25 + 500 C48 - C92 + C94 <= 1026
 R194: - 500 C9 - 500 C25 - 500 C48 - C92 + C94 >= -974
 R195: 500 C12 + 500 C26 + 500 C52 - C90 + C94 <= 1018
 R196: - 500 C12 - 500 C26 - 500 C52 - C90 + C94 >= -982
 R197: 500 C12 + 500 C28 + 500 C54 - C92 + C94 <= 1018
 R198: - 500 C12 - 500 C28 - 500 C54 - C92 + C94 >= -982
 R199: 500 C15 + 500 C29 + 500 C58 - C90 + C94 <= 1003
 R200: - 500 C15 - 500 C29 - 500 C58 - C90 + C94 >= -997
 R201: 500 C15 + 500 C31 + 500 C60 - C92 + C94 <= 1003
 R202: - 500 C15 - 500 C31 - 500 C60 - C92 + C94 >= -997
 R203: 500 C18 + 500 C32 + 500 C64 - C90 + C94 <= 1011
 R204: - 500 C18 - 500 C32 - 500 C64 - C90 + C94 >= -989
 R205: 500 C18 + 500 C34 + 500 C66 - C92 + C94 <= 1011
 R206: - 500 C18 - 500 C34 - 500 C66 - C92 + C94 >= -989
 R207: 500 C5 + 500 C21 + 500 C43 + C91 - C93 <= 1004
 R208: - 500 C5 - 500 C21 - 500 C43 + C91 - C93 >= -996
 R209: 500 C7 + 500 C21 + 500 C45 + C91 - C95 <= 1004
 R210: - 500 C7 - 500 C21 - 500 C45 + C91 - C95 >= -996
 R211: 500 C8 + 500 C24 + 500 C49 + C91 - C93 <= 1026
 R212: - 500 C8 - 500 C24 - 500 C49 + C91 - C93 >= -974
 R213: 500 C10 + 500 C24 + 500 C51 + C91 - C95 <= 1026
 R214: - 500 C10 - 500 C24 - 500 C51 + C91 - C95 >= -974
 R215: 500 C11 + 500 C27 + 500 C55 + C91 - C93 <= 1025
 R216: - 500 C11 - 500 C27 - 500 C55 + C91 - C93 >= -975
 R217: 500 C13 + 500 C27 + 500 C57 + C91 - C95 <= 1025
 R218: - 500 C13 - 500 C27 - 500 C57 + C91 - C95 >= -975
 R219: 500 C14 + 500 C30 + 500 C61 + C91 - C93 <= 1020
 R220: - 500 C14 - 500 C30 - 500 C61 + C91 - C93 >= -980
 R221: 500 C16 + 500 C30 + 500 C63 + C91 - C95 <= 1020
 R222: - 500 C16 - 500 C30 - 500 C63 + C91 - C95 >= -980
 R223: 500 C17 + 500 C33 + 500 C67 + C91 - C93 <= 1021
 R224: - 500 C17 - 500 C33 - 500 C67 + C91 - C93 >= -979
 R225: 500 C19 + 500 C33 + 500 C69 + C91 - C95 <= 1021
 R226: - 500 C19 - 500 C33 - 500 C69 + C91 - C95 >= -979
 R227: 100 C40 - C85 + C90 <= 108
 R228: - 100 C40 - C85 + C90 >= -92
 R229: 100 C41 - C85 + C91 <= 103
 R230: - 100 C41 - C85 + C91 >= -97
 R231: 100 C42 - C85 + C92 <= 115
 R232: - 100 C42 - C85 + C92 >= -85
 R233: 100 C46 - C86 + C90 <= 115
 R234: - 100 C46 - C86 + C90 >= -85
 R235: 100 C47 - C86 + C91 <= 130
 R236: - 100 C47 - C86 + C91 >= -70
 R237: 100 C48 - C86 + C92 <= 128
 R238: - 100 C48 - C86 + C92 >= -72
 R239: 100 C52 - C87 + C90 <= 130
 R240: - 100 C52 - C87 + C90 >= -70
 R241: 100 C53 - C87 + C91 <= 125
 R242: - 100 C53 - C87 + C91 >= -75
 R243: 100 C54 - C87 + C92 <= 118
 R244: - 100 C54 - C87 + C92 >= -82
 R245: 100 C58 - C88 + C90 <= 121
 R246: - 100 C58 - C88 + C90 >= -79
 R247: 100 C59 - C88 + C91 <= 114
 R248: - 100 C59 - C88 + C91 >= -86
 R249: 100 C60 - C88 + C92 <= 105
 R250: - 100 C60 - C88 + C92 >= -95
 R251: 100 C64 - C89 + C90 <= 119
 R252: - 100 C64 - C89 + C90 >= -81
 R253: 100 C65 - C89 + C91 <= 106
 R254: - 100 C65 - C89 + C91 >= -94
 R255: 100 C66 - C89 + C92 <= 116
 R256: - 100 C66 - C89 + C92 >= -84
 R257: 100 C43 - C85 + C93 <= 103
 R258: - 100 C43 - C85 + C93 >= -97
 R259: 100 C44 - C85 + C94 <= 108
 R260: - 100 C44 - C85 + C94 >= -92
 R261: 100 C45 - C85 + C95 <= 123
 R262: - 100 C45 - C85 + C95 >= -77
 R263: 100 C49 - C86 + C93 <= 124
 R264: - 100 C49 - C86 + C93 >= -76
 R265: 100 C50 - C86 + C94 <= 129
 R266: - 100 C50 - C86 + C94 >= -71
 R267: 100 C51 - C86 + C95 <= 112
 R268: - 100 C51 - C86 + C95 >= -88
 R269: 100 C55 - C87 + C93 <= 116
 R270: - 100 C55 - C87 + C93 >= -84
 R271: 100 C56 - C87 + C94 <= 102
 R272: - 100 C56 - C87 + C94 >= -98
 R273: 100 C57 - C87 + C95 <= 122
 R274: - 100 C57 - C87 + C95 >= -78
 R275: 100 C61 - C88 + C93 <= 114
 R276: - 100 C61 - C88 + C93 >= -86
 R277: 100 C62 - C88 + C94 <= 123
 R278: - 100 C62 - C88 + C94 >= -77
 R279: 100 C63 - C88 + C95 <= 120
 R280: - 100 C63 - C88 + C95 >= -80
 R281: 100 C67 - C89 + C93 <= 120
 R282: - 100 C67 - C89 + C93 >= -80
 R283: 100 C68 - C89 + C94 <= 111
 R284: - 100 C68 - C89 + C94 >= -89
 R285: 100 C69 - C89 + C95 <= 113
 R286: - 100 C69 - C89 + C95 >= -87
 R287: C90 - C91 <= -1
 R288: C91 - C92 <= -1
 R289: C93 - C94 <= -1
 R290: C94 - C95 <= -1
 R291: 22 C5 + 6 C6 + 2 C7 + 16 C20 + 4 C21 + 23 C22 + 8 C40 + 3 C41
   + 15 C42 + 3 C43 + 8 C44 + 23 C45 <= 100
 R292: 30 C8 + 26 C9 + 23 C10 + 23 C23 + 26 C24 + 23 C25 + 15 C46 + 30 C47
   + 28 C48 + 24 C49 + 29 C50 + 12 C51 <= 100
 R293: 10 C11 + 18 C12 + 10 C13 + 18 C26 + 25 C27 + 23 C28 + 30 C52
   + 25 C53 + 18 C54 + 16 C55 + 2 C56 + 22 C57 <= 100
 R294: 29 C14 + 3 C15 + 12 C16 + 29 C29 + 20 C30 + C31 + 21 C58 + 14 C59
   + 5 C60 + 14 C61 + 23 C62 + 20 C63 <= 100
 R295: 29 C17 + 11 C18 + 24 C19 + 23 C32 + 21 C33 + 2 C34 + 19 C64 + 6 C65
   + 16 C66 + 20 C67 + 11 C68 + 13 C69 <= 100
Bounds
Binaries
 C0 C1 C2 C3 C4 C5 C6 C7 C8 C9 C10 C11 C12 C13 C14 C15 C16 C17 C18 C19 C20
 C21 C22 C23 C24 C25 C26 C27 C28 C29 C30 C31 C32 C33 C34 C35 C36 C37 C38
 C39 C40 C41 C42 C43 C44 C45 C46 C47 C48 C49 C50 C51 C52 C53 C54 C55 C56
 C57 C58 C59 C60 C61 C62 C63 C64 C65 C66 C67 C68 C69 C70 C71 C72 C73 C74
 C75 C76 C77 C78 C79 C80 C81 C82 C83 C84
End
